(declare-fun v1 () (_ BitVec 16))
(declare-fun v2 () (_ BitVec 16))
(assert
(let (($e46 (_ bv32767 15)))
(let (($e239 (bvand        v1         v2    )))
(let (($e302      (= v1    $e239)      ))
(let (($e474 (concat $e46 false )))
(let (($e475 (bvand $e474 $e239)))
              (ite        $e302   $e239 $e475)
                                                                                                                                                                                                                                                                                                                                                                                                                                                                                                                                                                                                                                                                                                                                                                                                                                                                                                                                                                                                                                                                                                                                                                                                                                                                                                                                                                                                                                                                                                                                                                                                                                                                                                                                                                                                                                                                                                                                                                                                                                                                                                                                                                                                                                                                                                                                                                                                                                                                                                                                                                                                                                                                                                                                                                                                                                                                                                                                                                                                                                                                                                                                                                                                                                                                                                                                                                                                                                                                                                                                                                                                                                                                                                                                                                                                                                                                                                                                                                                                                                                                                                                                                                                                                                                                                                                                                                                                                                                                                                                                                                                                                                                                                                                                                                                                                                                                                                                                                                                                                                                                                                                                                                                                                                                                                                                                                                                                                                                                                                                                                                                                                                                                                                                                                                                                                                                                                                                                                                                                                                           ))                                                                                                                                                                           )                                                              )                                                                                                                                                                                     )                                             )
